
Gurobi 9.5.0 (linux64) logging started Thu Feb  3 11:13:15 2022

Set parameter LogFile to value "/home/aniket/PhD/Plasmids-Optimization/exp/2021-06-14__iterative_MILP_edge_novelty/output/sample_123/1.1.1/nplasmids_1/MILP/m.log"
Set parameter TimeLimit to value 240
Set parameter MIPGap to value 0.05
Gurobi Optimizer version 9.5.0 build v9.5.0rc5 (linux64)
Thread count: 2 physical cores, 4 logical processors, using up to 4 threads
Optimize a model with 17148 rows, 5776 columns and 47237 nonzeros
Model fingerprint: 0x91471124
Variable types: 1451 continuous, 4325 integer (4035 binary)
Coefficient statistics:
  Matrix range     [1e-02, 1e+06]
  Objective range  [1e-03, 1e+00]
  Bounds range     [1e+00, 1e+00]
  RHS range        [1e+00, 2e+05]
Presolve removed 15149 rows and 2744 columns
Presolve time: 0.14s
Presolved: 1999 rows, 3032 columns, 14553 nonzeros
Variable types: 555 continuous, 2477 integer (2477 binary)
Found heuristic solution: objective -1.6435166

Root relaxation: objective -1.712477e+00, 1330 iterations, 0.04 seconds (0.03 work units)

    Nodes    |    Current Node    |     Objective Bounds      |     Work
 Expl Unexpl |  Obj  Depth IntInf | Incumbent    BestBd   Gap | It/Node Time

     0     0   -1.71248    0    6   -1.64352   -1.71248  4.20%     -    0s

Explored 1 nodes (1330 simplex iterations) in 0.22 seconds (0.15 work units)
Thread count was 4 (of 4 available processors)

Solution count 1: -1.64352 

Optimal solution found (tolerance 5.00e-02)
Best objective -1.643516553480e+00, best bound -1.712476839614e+00, gap 4.1959%
Gurobi Optimizer version 9.5.0 build v9.5.0rc5 (linux64)
Thread count: 2 physical cores, 4 logical processors, using up to 4 threads
Optimize a model with 17149 rows, 5776 columns and 47238 nonzeros
Model fingerprint: 0x00ce54ac
Variable types: 1451 continuous, 4325 integer (4035 binary)
Coefficient statistics:
  Matrix range     [1e-02, 1e+06]
  Objective range  [1e-03, 1e+00]
  Bounds range     [1e+00, 1e+00]
  RHS range        [1e+00, 2e+05]

MIP start from previous solve did not produce a new incumbent solution
MIP start from previous solve violates constraint circular by 1.000000000

Presolve removed 15151 rows and 2745 columns
Presolve time: 0.15s
Presolved: 1998 rows, 3031 columns, 14549 nonzeros
Variable types: 555 continuous, 2476 integer (2476 binary)
Found heuristic solution: objective -1.6435166

Root relaxation: objective -1.712477e+00, 1234 iterations, 0.03 seconds (0.03 work units)

    Nodes    |    Current Node    |     Objective Bounds      |     Work
 Expl Unexpl |  Obj  Depth IntInf | Incumbent    BestBd   Gap | It/Node Time

     0     0   -1.71248    0    2   -1.64352   -1.71248  4.20%     -    0s

Explored 1 nodes (1234 simplex iterations) in 0.24 seconds (0.15 work units)
Thread count was 4 (of 4 available processors)

Solution count 1: -1.64352 

Optimal solution found (tolerance 5.00e-02)
Best objective -1.643516553480e+00, best bound -1.712476839614e+00, gap 4.1959%
Gurobi Optimizer version 9.5.0 build v9.5.0rc5 (linux64)
Thread count: 2 physical cores, 4 logical processors, using up to 4 threads
Optimize a model with 17150 rows, 5776 columns and 47239 nonzeros
Model fingerprint: 0x458be800
Variable types: 1451 continuous, 4325 integer (4035 binary)
Coefficient statistics:
  Matrix range     [1e-02, 1e+06]
  Objective range  [1e-03, 1e+00]
  Bounds range     [1e+00, 1e+00]
  RHS range        [1e+00, 2e+05]

MIP start from previous solve did not produce a new incumbent solution
MIP start from previous solve violates constraint circular by 1.000000000

Presolve removed 15151 rows and 2745 columns
Presolve time: 0.15s
Presolved: 1999 rows, 3031 columns, 14552 nonzeros
Variable types: 555 continuous, 2476 integer (2476 binary)
Found heuristic solution: objective -1.6435166

Root relaxation: objective -1.712477e+00, 1418 iterations, 0.04 seconds (0.03 work units)

    Nodes    |    Current Node    |     Objective Bounds      |     Work
 Expl Unexpl |  Obj  Depth IntInf | Incumbent    BestBd   Gap | It/Node Time

     0     0   -1.71248    0    2   -1.64352   -1.71248  4.20%     -    0s

Explored 1 nodes (1418 simplex iterations) in 0.25 seconds (0.15 work units)
Thread count was 4 (of 4 available processors)

Solution count 1: -1.64352 

Optimal solution found (tolerance 5.00e-02)
Best objective -1.643516553480e+00, best bound -1.712476839614e+00, gap 4.1959%

Gurobi 9.5.0 (linux64) logging started Thu Feb  3 11:13:16 2022

Set parameter LogFile to value "/home/aniket/PhD/Plasmids-Optimization/exp/2021-06-14__iterative_MILP_edge_novelty/output/sample_123/1.1.1/nplasmids_1/MILP/m.log"
Set parameter TimeLimit to value 240
Set parameter MIPGap to value 0.05
Gurobi Optimizer version 9.5.0 build v9.5.0rc5 (linux64)
Thread count: 2 physical cores, 4 logical processors, using up to 4 threads
Optimize a model with 17054 rows, 5744 columns and 47011 nonzeros
Model fingerprint: 0x4bbc8176
Variable types: 1441 continuous, 4303 integer (4015 binary)
Coefficient statistics:
  Matrix range     [1e-02, 1e+06]
  Objective range  [1e-03, 1e+00]
  Bounds range     [1e+00, 1e+00]
  RHS range        [1e+00, 2e+05]
Presolve removed 15068 rows and 2720 columns
Presolve time: 0.14s
Presolved: 1986 rows, 3024 columns, 14454 nonzeros
Variable types: 551 continuous, 2473 integer (2473 binary)
Found heuristic solution: objective -0.8217583
Found heuristic solution: objective -0.8907186

Root relaxation: objective -1.712477e+00, 1217 iterations, 0.04 seconds (0.04 work units)

    Nodes    |    Current Node    |     Objective Bounds      |     Work
 Expl Unexpl |  Obj  Depth IntInf | Incumbent    BestBd   Gap | It/Node Time

     0     0   -1.71248    0    2   -0.89072   -1.71248  92.3%     -    0s
H    0     0                      -1.6631934   -1.71248  2.96%     -    0s

Explored 1 nodes (1217 simplex iterations) in 0.25 seconds (0.16 work units)
Thread count was 4 (of 4 available processors)

Solution count 3: -1.66319 -0.890719 -0.821758 

Optimal solution found (tolerance 5.00e-02)
Best objective -1.663193350142e+00, best bound -1.712476839614e+00, gap 2.9632%
Gurobi Optimizer version 9.5.0 build v9.5.0rc5 (linux64)
Thread count: 2 physical cores, 4 logical processors, using up to 4 threads
Optimize a model with 17055 rows, 5744 columns and 47012 nonzeros
Model fingerprint: 0x5ee35de4
Variable types: 1441 continuous, 4303 integer (4015 binary)
Coefficient statistics:
  Matrix range     [1e-02, 1e+06]
  Objective range  [1e-03, 1e+00]
  Bounds range     [1e+00, 1e+00]
  RHS range        [1e+00, 2e+05]

MIP start from previous solve did not produce a new incumbent solution
MIP start from previous solve violates constraint circular by 1.000000000

Presolve removed 15070 rows and 2721 columns
Presolve time: 0.14s
Presolved: 1985 rows, 3023 columns, 14451 nonzeros
Variable types: 551 continuous, 2472 integer (2472 binary)
Found heuristic solution: objective -0.8217583
Found heuristic solution: objective -0.8907186

Root relaxation: cutoff, 1197 iterations, 0.05 seconds (0.04 work units)

    Nodes    |    Current Node    |     Objective Bounds      |     Work
 Expl Unexpl |  Obj  Depth IntInf | Incumbent    BestBd   Gap | It/Node Time

     0     0     cutoff    0        -0.89072   -0.89072  0.00%     -    0s

Explored 1 nodes (1197 simplex iterations) in 0.24 seconds (0.16 work units)
Thread count was 4 (of 4 available processors)

Solution count 2: -0.890719 -0.821758 

Optimal solution found (tolerance 5.00e-02)
Best objective -8.907185628743e-01, best bound -8.907185628743e-01, gap 0.0000%

Gurobi 9.5.0 (linux64) logging started Thu Feb  3 11:13:17 2022

Set parameter LogFile to value "/home/aniket/PhD/Plasmids-Optimization/exp/2021-06-14__iterative_MILP_edge_novelty/output/sample_123/1.1.1/nplasmids_1/MILP/m.log"
Set parameter TimeLimit to value 240
Set parameter MIPGap to value 0.05
Gurobi Optimizer version 9.5.0 build v9.5.0rc5 (linux64)
Thread count: 2 physical cores, 4 logical processors, using up to 4 threads
Optimize a model with 16983 rows, 5720 columns and 46794 nonzeros
Model fingerprint: 0xff4a2df0
Variable types: 1436 continuous, 4284 integer (3997 binary)
Coefficient statistics:
  Matrix range     [1e-02, 1e+06]
  Objective range  [1e-03, 1e+00]
  Bounds range     [1e+00, 1e+00]
  RHS range        [1e+00, 2e+05]
Presolve removed 15004 rows and 2706 columns
Presolve time: 0.15s
Presolved: 1979 rows, 3014 columns, 14332 nonzeros
Variable types: 549 continuous, 2465 integer (2465 binary)
Found heuristic solution: objective -0.8217583
Found heuristic solution: objective -0.8907186

Root relaxation: objective -1.712477e+00, 1465 iterations, 0.05 seconds (0.04 work units)

    Nodes    |    Current Node    |     Objective Bounds      |     Work
 Expl Unexpl |  Obj  Depth IntInf | Incumbent    BestBd   Gap | It/Node Time

     0     0   -1.71248    0    2   -0.89072   -1.71248  92.3%     -    0s
H    0     0                      -1.6631934   -1.71248  2.96%     -    0s

Explored 1 nodes (1465 simplex iterations) in 0.26 seconds (0.16 work units)
Thread count was 4 (of 4 available processors)

Solution count 3: -1.66319 -0.890719 -0.821758 

Optimal solution found (tolerance 5.00e-02)
Best objective -1.663193350142e+00, best bound -1.712476839614e+00, gap 2.9632%
Gurobi Optimizer version 9.5.0 build v9.5.0rc5 (linux64)
Thread count: 2 physical cores, 4 logical processors, using up to 4 threads
Optimize a model with 16984 rows, 5720 columns and 46795 nonzeros
Model fingerprint: 0x3bb7500a
Variable types: 1436 continuous, 4284 integer (3997 binary)
Coefficient statistics:
  Matrix range     [1e-02, 1e+06]
  Objective range  [1e-03, 1e+00]
  Bounds range     [1e+00, 1e+00]
  RHS range        [1e+00, 2e+05]

MIP start from previous solve did not produce a new incumbent solution
MIP start from previous solve violates constraint circular by 1.000000000

Presolve removed 15006 rows and 2707 columns
Presolve time: 0.12s
Presolved: 1978 rows, 3013 columns, 14329 nonzeros
Variable types: 549 continuous, 2464 integer (2464 binary)
Found heuristic solution: objective -0.8217583
Found heuristic solution: objective -0.8907186

Root relaxation: cutoff, 1606 iterations, 0.05 seconds (0.05 work units)

    Nodes    |    Current Node    |     Objective Bounds      |     Work
 Expl Unexpl |  Obj  Depth IntInf | Incumbent    BestBd   Gap | It/Node Time

     0     0     cutoff    0        -0.89072   -0.89072  0.00%     -    0s

Explored 1 nodes (1606 simplex iterations) in 0.22 seconds (0.17 work units)
Thread count was 4 (of 4 available processors)

Solution count 2: -0.890719 -0.821758 

Optimal solution found (tolerance 5.00e-02)
Best objective -8.907185628743e-01, best bound -8.907185628743e-01, gap 0.0000%

Gurobi 9.5.0 (linux64) logging started Thu Feb  3 11:13:18 2022

Set parameter LogFile to value "/home/aniket/PhD/Plasmids-Optimization/exp/2021-06-14__iterative_MILP_edge_novelty/output/sample_123/1.1.1/nplasmids_1/MILP/m.log"
Set parameter TimeLimit to value 240
Set parameter MIPGap to value 0.05
Gurobi Optimizer version 9.5.0 build v9.5.0rc5 (linux64)
Thread count: 2 physical cores, 4 logical processors, using up to 4 threads
Optimize a model with 16912 rows, 5696 columns and 46577 nonzeros
Model fingerprint: 0x45ae26bf
Variable types: 1431 continuous, 4265 integer (3979 binary)
Coefficient statistics:
  Matrix range     [1e-02, 1e+06]
  Objective range  [1e-03, 1e+00]
  Bounds range     [1e+00, 1e+00]
  RHS range        [1e+00, 2e+05]
Presolve removed 14940 rows and 2692 columns
Presolve time: 0.11s
Presolved: 1972 rows, 3004 columns, 14210 nonzeros
Variable types: 547 continuous, 2457 integer (2457 binary)
Found heuristic solution: objective -0.8217583
Found heuristic solution: objective -0.8907186

Root relaxation: objective -1.712477e+00, 1218 iterations, 0.04 seconds (0.04 work units)

    Nodes    |    Current Node    |     Objective Bounds      |     Work
 Expl Unexpl |  Obj  Depth IntInf | Incumbent    BestBd   Gap | It/Node Time

     0     0   -1.71248    0    2   -0.89072   -1.71248  92.3%     -    0s
H    0     0                      -1.6631934   -1.71248  2.96%     -    0s

Explored 1 nodes (1218 simplex iterations) in 0.20 seconds (0.16 work units)
Thread count was 4 (of 4 available processors)

Solution count 3: -1.66319 -0.890719 -0.821758 

Optimal solution found (tolerance 5.00e-02)
Best objective -1.663193350142e+00, best bound -1.712476839614e+00, gap 2.9632%
Gurobi Optimizer version 9.5.0 build v9.5.0rc5 (linux64)
Thread count: 2 physical cores, 4 logical processors, using up to 4 threads
Optimize a model with 16913 rows, 5696 columns and 46578 nonzeros
Model fingerprint: 0x9f0518be
Variable types: 1431 continuous, 4265 integer (3979 binary)
Coefficient statistics:
  Matrix range     [1e-02, 1e+06]
  Objective range  [1e-03, 1e+00]
  Bounds range     [1e+00, 1e+00]
  RHS range        [1e+00, 2e+05]

MIP start from previous solve did not produce a new incumbent solution
MIP start from previous solve violates constraint circular by 1.000000000

Presolve removed 14942 rows and 2693 columns
Presolve time: 0.12s
Presolved: 1971 rows, 3003 columns, 14207 nonzeros
Variable types: 547 continuous, 2456 integer (2456 binary)
Found heuristic solution: objective -0.8217583
Found heuristic solution: objective -0.8907186

Root relaxation: cutoff, 1020 iterations, 0.03 seconds (0.03 work units)

    Nodes    |    Current Node    |     Objective Bounds      |     Work
 Expl Unexpl |  Obj  Depth IntInf | Incumbent    BestBd   Gap | It/Node Time

     0     0     cutoff    0        -0.89072   -0.89072  0.00%     -    0s

Explored 1 nodes (1020 simplex iterations) in 0.19 seconds (0.15 work units)
Thread count was 4 (of 4 available processors)

Solution count 2: -0.890719 -0.821758 

Optimal solution found (tolerance 5.00e-02)
Best objective -8.907185628743e-01, best bound -8.907185628743e-01, gap 0.0000%

Gurobi 9.5.0 (linux64) logging started Thu Feb  3 11:13:18 2022

Set parameter LogFile to value "/home/aniket/PhD/Plasmids-Optimization/exp/2021-06-14__iterative_MILP_edge_novelty/output/sample_123/1.1.1/nplasmids_1/MILP/m.log"
Set parameter TimeLimit to value 240
Set parameter MIPGap to value 0.05
Gurobi Optimizer version 9.5.0 build v9.5.0rc5 (linux64)
Thread count: 2 physical cores, 4 logical processors, using up to 4 threads
Optimize a model with 16841 rows, 5672 columns and 46360 nonzeros
Model fingerprint: 0xbf0a6242
Variable types: 1426 continuous, 4246 integer (3961 binary)
Coefficient statistics:
  Matrix range     [1e-02, 1e+06]
  Objective range  [1e-03, 1e+00]
  Bounds range     [1e+00, 1e+00]
  RHS range        [1e+00, 2e+05]
Presolve removed 14876 rows and 2678 columns
Presolve time: 0.16s
Presolved: 1965 rows, 2994 columns, 14088 nonzeros
Variable types: 545 continuous, 2449 integer (2449 binary)
Found heuristic solution: objective -0.8217583
Found heuristic solution: objective -0.8907186

Root relaxation: objective -1.712477e+00, 1220 iterations, 0.06 seconds (0.06 work units)

    Nodes    |    Current Node    |     Objective Bounds      |     Work
 Expl Unexpl |  Obj  Depth IntInf | Incumbent    BestBd   Gap | It/Node Time

     0     0   -1.71248    0    2   -0.89072   -1.71248  92.3%     -    0s
H    0     0                      -1.6631934   -1.71248  2.96%     -    0s

Explored 1 nodes (1220 simplex iterations) in 0.27 seconds (0.17 work units)
Thread count was 4 (of 4 available processors)

Solution count 3: -1.66319 -0.890719 -0.821758 

Optimal solution found (tolerance 5.00e-02)
Best objective -1.663193350142e+00, best bound -1.712476839614e+00, gap 2.9632%
Gurobi Optimizer version 9.5.0 build v9.5.0rc5 (linux64)
Thread count: 2 physical cores, 4 logical processors, using up to 4 threads
Optimize a model with 16842 rows, 5672 columns and 46361 nonzeros
Model fingerprint: 0xeb784191
Variable types: 1426 continuous, 4246 integer (3961 binary)
Coefficient statistics:
  Matrix range     [1e-02, 1e+06]
  Objective range  [1e-03, 1e+00]
  Bounds range     [1e+00, 1e+00]
  RHS range        [1e+00, 2e+05]

MIP start from previous solve did not produce a new incumbent solution
MIP start from previous solve violates constraint circular by 1.000000000

Presolve removed 14878 rows and 2679 columns
Presolve time: 0.12s
Presolved: 1964 rows, 2993 columns, 14085 nonzeros
Variable types: 545 continuous, 2448 integer (2448 binary)
Found heuristic solution: objective -0.8217583
Found heuristic solution: objective -0.8907186

Root relaxation: cutoff, 1490 iterations, 0.05 seconds (0.05 work units)

    Nodes    |    Current Node    |     Objective Bounds      |     Work
 Expl Unexpl |  Obj  Depth IntInf | Incumbent    BestBd   Gap | It/Node Time

     0     0     cutoff    0        -0.89072   -0.89072  0.00%     -    0s

Explored 1 nodes (1490 simplex iterations) in 0.22 seconds (0.17 work units)
Thread count was 4 (of 4 available processors)

Solution count 2: -0.890719 -0.821758 

Optimal solution found (tolerance 5.00e-02)
Best objective -8.907185628743e-01, best bound -8.907185628743e-01, gap 0.0000%

Gurobi 9.5.0 (linux64) logging started Thu Feb  3 11:13:19 2022

Set parameter LogFile to value "/home/aniket/PhD/Plasmids-Optimization/exp/2021-06-14__iterative_MILP_edge_novelty/output/sample_123/1.1.1/nplasmids_1/MILP/m.log"
Set parameter TimeLimit to value 240
Set parameter MIPGap to value 0.05
Gurobi Optimizer version 9.5.0 build v9.5.0rc5 (linux64)
Thread count: 2 physical cores, 4 logical processors, using up to 4 threads
Optimize a model with 16770 rows, 5648 columns and 46143 nonzeros
Model fingerprint: 0x236176b5
Variable types: 1421 continuous, 4227 integer (3943 binary)
Coefficient statistics:
  Matrix range     [1e-02, 1e+06]
  Objective range  [1e-03, 1e+00]
  Bounds range     [1e+00, 1e+00]
  RHS range        [1e+00, 2e+05]
Presolve removed 14812 rows and 2664 columns
Presolve time: 0.11s
Presolved: 1958 rows, 2984 columns, 13966 nonzeros
Variable types: 543 continuous, 2441 integer (2441 binary)
Found heuristic solution: objective -0.8217583
Found heuristic solution: objective -0.8907186

Root relaxation: objective -1.712477e+00, 852 iterations, 0.05 seconds (0.05 work units)

    Nodes    |    Current Node    |     Objective Bounds      |     Work
 Expl Unexpl |  Obj  Depth IntInf | Incumbent    BestBd   Gap | It/Node Time

     0     0   -1.71248    0    2   -0.89072   -1.71248  92.3%     -    0s
H    0     0                      -1.6631934   -1.71248  2.96%     -    0s

Explored 1 nodes (852 simplex iterations) in 0.21 seconds (0.16 work units)
Thread count was 4 (of 4 available processors)

Solution count 3: -1.66319 -0.890719 -0.821758 

Optimal solution found (tolerance 5.00e-02)
Best objective -1.663193350142e+00, best bound -1.712476839614e+00, gap 2.9632%
Gurobi Optimizer version 9.5.0 build v9.5.0rc5 (linux64)
Thread count: 2 physical cores, 4 logical processors, using up to 4 threads
Optimize a model with 16771 rows, 5648 columns and 46144 nonzeros
Model fingerprint: 0x9a540fd4
Variable types: 1421 continuous, 4227 integer (3943 binary)
Coefficient statistics:
  Matrix range     [1e-02, 1e+06]
  Objective range  [1e-03, 1e+00]
  Bounds range     [1e+00, 1e+00]
  RHS range        [1e+00, 2e+05]

MIP start from previous solve did not produce a new incumbent solution
MIP start from previous solve violates constraint circular by 1.000000000

Presolve removed 14814 rows and 2665 columns
Presolve time: 0.12s
Presolved: 1957 rows, 2983 columns, 13963 nonzeros
Variable types: 543 continuous, 2440 integer (2440 binary)
Found heuristic solution: objective -0.8217583
Found heuristic solution: objective -0.8907186

Root relaxation: cutoff, 872 iterations, 0.04 seconds (0.04 work units)

    Nodes    |    Current Node    |     Objective Bounds      |     Work
 Expl Unexpl |  Obj  Depth IntInf | Incumbent    BestBd   Gap | It/Node Time

     0     0     cutoff    0        -0.89072   -0.89072  0.00%     -    0s

Explored 1 nodes (872 simplex iterations) in 0.20 seconds (0.15 work units)
Thread count was 4 (of 4 available processors)

Solution count 2: -0.890719 -0.821758 

Optimal solution found (tolerance 5.00e-02)
Best objective -8.907185628743e-01, best bound -8.907185628743e-01, gap 0.0000%

Gurobi 9.5.0 (linux64) logging started Thu Feb  3 11:13:20 2022

Set parameter LogFile to value "/home/aniket/PhD/Plasmids-Optimization/exp/2021-06-14__iterative_MILP_edge_novelty/output/sample_123/1.1.1/nplasmids_1/MILP/m.log"
Set parameter TimeLimit to value 240
Set parameter MIPGap to value 0.05
Gurobi Optimizer version 9.5.0 build v9.5.0rc5 (linux64)
Thread count: 2 physical cores, 4 logical processors, using up to 4 threads
Optimize a model with 16699 rows, 5624 columns and 45926 nonzeros
Model fingerprint: 0x683fffac
Variable types: 1416 continuous, 4208 integer (3925 binary)
Coefficient statistics:
  Matrix range     [1e-02, 1e+06]
  Objective range  [1e-03, 1e+00]
  Bounds range     [1e+00, 1e+00]
  RHS range        [1e+00, 2e+05]
Presolve removed 14749 rows and 2650 columns
Presolve time: 0.11s
Presolved: 1950 rows, 2974 columns, 13919 nonzeros
Variable types: 541 continuous, 2433 integer (2433 binary)
Found heuristic solution: objective -0.8907186

Root relaxation: objective -1.663193e+00, 8 iterations, 0.00 seconds (0.00 work units)

    Nodes    |    Current Node    |     Objective Bounds      |     Work
 Expl Unexpl |  Obj  Depth IntInf | Incumbent    BestBd   Gap | It/Node Time

*    0     0               0      -1.6631934   -1.66319  0.00%     -    0s

Explored 1 nodes (8 simplex iterations) in 0.15 seconds (0.11 work units)
Thread count was 4 (of 4 available processors)

Solution count 2: -1.66319 -0.890719 
No other solutions better than -1.66319

Optimal solution found (tolerance 5.00e-02)
Best objective -1.663193350142e+00, best bound -1.663193350142e+00, gap 0.0000%
Gurobi Optimizer version 9.5.0 build v9.5.0rc5 (linux64)
Thread count: 2 physical cores, 4 logical processors, using up to 4 threads
Optimize a model with 16700 rows, 5624 columns and 45927 nonzeros
Model fingerprint: 0xaf765226
Variable types: 1416 continuous, 4208 integer (3925 binary)
Coefficient statistics:
  Matrix range     [1e-02, 1e+06]
  Objective range  [1e-03, 1e+00]
  Bounds range     [1e+00, 1e+00]
  RHS range        [1e+00, 2e+05]

MIP start from previous solve did not produce a new incumbent solution
MIP start from previous solve violates constraint circular by 1.000000000

Presolve removed 14751 rows and 2651 columns
Presolve time: 0.11s
Presolved: 1949 rows, 2973 columns, 13916 nonzeros
Variable types: 541 continuous, 2432 integer (2432 binary)
Found heuristic solution: objective -0.8907186

Root relaxation: cutoff, 820 iterations, 0.05 seconds (0.05 work units)

    Nodes    |    Current Node    |     Objective Bounds      |     Work
 Expl Unexpl |  Obj  Depth IntInf | Incumbent    BestBd   Gap | It/Node Time

     0     0     cutoff    0        -0.89072   -0.89072  0.00%     -    0s

Explored 1 nodes (820 simplex iterations) in 0.19 seconds (0.16 work units)
Thread count was 4 (of 4 available processors)

Solution count 1: -0.890719 

Optimal solution found (tolerance 5.00e-02)
Best objective -8.907185628743e-01, best bound -8.907185628743e-01, gap 0.0000%

Gurobi 9.5.0 (linux64) logging started Thu Feb  3 11:13:21 2022

Set parameter LogFile to value "/home/aniket/PhD/Plasmids-Optimization/exp/2021-06-14__iterative_MILP_edge_novelty/output/sample_123/1.1.1/nplasmids_1/MILP/m.log"
Set parameter TimeLimit to value 240
Set parameter MIPGap to value 0.05
Gurobi Optimizer version 9.5.0 build v9.5.0rc5 (linux64)
Thread count: 2 physical cores, 4 logical processors, using up to 4 threads
Optimize a model with 16628 rows, 5600 columns and 45709 nonzeros
Model fingerprint: 0x748c4ba7
Variable types: 1411 continuous, 4189 integer (3907 binary)
Coefficient statistics:
  Matrix range     [1e-02, 1e+06]
  Objective range  [1e-03, 1e+00]
  Bounds range     [1e+00, 1e+00]
  RHS range        [1e+00, 2e+05]
Presolve removed 14725 rows and 2666 columns
Presolve time: 0.10s
Presolved: 1903 rows, 2934 columns, 13534 nonzeros
Variable types: 530 continuous, 2404 integer (2404 binary)
Found heuristic solution: objective -0.8217583

Explored 0 nodes (0 simplex iterations) in 0.12 seconds (0.10 work units)
Thread count was 4 (of 4 available processors)

Solution count 1: -0.821758 

Optimal solution found (tolerance 5.00e-02)
Best objective -8.217582767402e-01, best bound -8.217582767402e-01, gap 0.0000%

Gurobi 9.5.0 (linux64) logging started Thu Feb  3 11:13:21 2022

Set parameter LogFile to value "/home/aniket/PhD/Plasmids-Optimization/exp/2021-06-14__iterative_MILP_edge_novelty/output/sample_123/1.1.1/nplasmids_1/MILP/m.log"
Set parameter TimeLimit to value 240
Set parameter MIPGap to value 0.05
Gurobi Optimizer version 9.5.0 build v9.5.0rc5 (linux64)
Thread count: 2 physical cores, 4 logical processors, using up to 4 threads
Optimize a model with 16590 rows, 5587 columns and 45635 nonzeros
Model fingerprint: 0xe1dc9741
Variable types: 1406 continuous, 4181 integer (3900 binary)
Coefficient statistics:
  Matrix range     [1e-02, 1e+06]
  Objective range  [1e-03, 1e+00]
  Bounds range     [1e+00, 1e+00]
  RHS range        [1e+00, 2e+05]
Presolve removed 6259 rows and 870 columns
Presolve time: 0.01s

Explored 0 nodes (0 simplex iterations) in 0.01 seconds (0.01 work units)
Thread count was 1 (of 4 available processors)

Solution count 0

Model is infeasible
Best objective -, best bound -, gap -

Computing Irreducible Inconsistent Subsystem (IIS)...

           Constraints          |            Bounds           |  Runtime
      Min       Max     Guess   |   Min       Max     Guess   |
--------------------------------------------------------------------------
        0     13205         -         0      1687         -           0s
      564       564         -         0         0         -           2s

IIS computed: 564 constraints, 0 bounds
IIS runtime: 2.26 seconds (0.40 work units)
Warning: linear constraint 0 and linear constraint 1 have the same name "counted_length"
